c --- [ banner ] -------------------------------------------------------------
c 
c CaDiCaL Radically Simplified CDCL SAT Solver
c Copyright (c) 2016-2021 A. Biere, M. Fleury, N. Froleyks
c 
c Version 1.5.2 ca9bff05c11bde5eae4912f9932871d1527e61d8
c g++ (GCC) 9.3.0 -Wall -Wextra -O3 -DNDEBUG
c Thu Jul 28 23:42:48 EDT 2022 Linux gra-login3 3.10.0-1160.66.1.el7.x86_64 x86_64
c 
c --- [ limit ] --------------------------------------------------------------
c 
c setting conflict limit to 200000 conflicts (due to '200000')
c 
c --- [ parsing input ] ------------------------------------------------------
c 
c reading DIMACS file from '23.cubes390.adj'
c opening file to read '23.cubes390.adj'
c found 'p cnf 5320 914896' header
c parsed 914896 clauses in 7.25 seconds process time
c closing file '23.cubes390.adj'
c after reading 637830014 bytes 608.3 MB
c 
c --- [ options ] ------------------------------------------------------------
c 
c all options are set to their default value
c 
c --- [ solving ] ------------------------------------------------------------
c 
c time measured in process time since initialization
c 
c  seconds   reductions  redundant  irredundant
c          MB    restarts       trail      variables
c           level   conflicts       glue        remaining
c 
c *  7.25 631  0 0   0    0    0  0% 0 914847 2154 40%
c {  7.46 646  0 0   0    0    0  0% 0 914847 2154 40%
c i  8.67 690 580 0   2   46   33 31% 4 914847 2142 40%
c }  8.70 690 525 0   2   51   36 29% 3 914847 2113 40%
c 0  8.70 690 525 0   2   51   36 29% 3 914847 2113 40%
c 
c --- [ writing output ] -----------------------------------------------------
c 
c writing simplified CNF to DIMACS file 'simp/23.cubes390.adj.simp1'
c *  8.70 690 525 0   2   51   36 29% 3 914847 2113 40%
c opening file to write 'simp/23.cubes390.adj.simp1'
c writing 'p cnf 5320 1' header
c closing file 'simp/23.cubes390.adj.simp1'
c after writing 15 bytes 0.0 MB
c wrote 1 clauses in 0.00 seconds process time
c 
c --- [ writing extension ] --------------------------------------------------
c 
c writing extension stack to 'simp/23.cubes390.adj.ext1'
c opening file to write 'simp/23.cubes390.adj.ext1'
c closing file 'simp/23.cubes390.adj.ext1'
c after writing 0 bytes 0.0 MB
c wrote 0 witnesses in 0.00 seconds process time
c 
c --- [ result ] -------------------------------------------------------------
c 
s UNSATISFIABLE
c 
c --- [ run-time profiling ] -------------------------------------------------
c 
c process time taken by individual solving procedures
c (percentage relative to process time for solving)
c 
c         7.25  500.55% parse
c         1.45   99.98% search
c         1.24   85.39% unstable
c         0.21   14.58% lucky
c         0.00    0.00% simplify
c   =================================
c         1.45   16.65% solve
c 
c last line shows process time for solving
c (percentage relative to total process time)
c 
c --- [ statistics ] ---------------------------------------------------------
c 
c chronological:                23        45.10 %  of conflicts
c conflicts:                    51        35.21    per second
c decisions:                  1300       897.43    per second
c fixed:                       370         6.95 %  of all variables
c learned:                      42        82.35 %  per conflict
c learned_lits:                382       100.00 %  learned literals
c minimized:                     0         0.00 %  learned literals
c shrunken:                     99        25.92 %  learned literals
c minishrunken:                 13         3.40 %  learned literals
c propagations:               8481         0.01 M  per second
c restarts:                      2        25.50    interval
c subsumed:                      4         0.00 %  of all clauses
c 
c seconds are measured in process time for solving
c 
c --- [ resources ] ----------------------------------------------------------
c 
c total process time since initialization:         8.70    seconds
c total real time since initialization:            9.18    seconds
c maximum resident set size of process:          690.27    MB
c 
c --- [ shutting down ] ------------------------------------------------------
c 
c exit 20
WARNING! DIMACS header mismatch: wrong number of variables.
============================[ Problem Statistics ]=============================
|                                                                             |
|  Number of variables:             0                                         |
|  Number of clauses:               0                                         |
|  Parse time:                   0.00 s                                       |
|  Simplification time:          0.00 s                                       |
|                                                                             |
===============================================================================
Solved by simplification
database reductions   : 0
restarts              : 0
conflicts             : 0              (-nan /sec)
decisions             : 0              (-nan % random) (-nan /sec)
propagations          : 0              (-nan /sec)
conflict literals     : 0              (-nan % deleted)
actual reward         : -nan
Memory used           : 5.00 MB
CPU time              : 0 s

UNSATISFIABLE
